%%% static parameters %%%
timespan = 1;
Fact = [4];
Distr1 = [15];
Distr2 = [30];
Clients_N = [1000];
Demand_W = [15];
Lt0 = [4];
Lt1 = [4];
SS_ = [0.85];
DS_D = [8];
K = [200];
MA = [500];
%%% dynamic parameters %%%
lost_ratio_sales_ret_th = 0.7141845216181649;
lost_ratio_sales_ret_w = 18;
lost_ratio_sales_dis_th = 0.15071198599022362;
lost_ratio_sales_dis_w = 34;
lost_ratio_sales_fac_th = 0.13743846463146792;
lost_ratio_sales_fac_w = 38;
stock_customer_MA_mean_relative_th = 0.8084038125423396;
stock_customer_MA_mean_relative_w = 2;
stock_distributor_MA_mean_relative_th = 0.5435873992300617;
stock_distributor_MA_mean_relative_w = 27;
stock_retailer_MA_mean_relative_th = 0.49604618490811814;
stock_retailer_MA_mean_relative_w = 88;
stock_factory_MA_mean_relative_th = 0.8745982842333142;
stock_factory_MA_mean_relative_w = 82;
